problems/csplib-prob055/EFPA-models/noch/O0/minion/model-eparams-solution000001.eprime-solution
language ESSENCE' 1.0

letting E_Explicit be
        [[1, 1, 2, 2, 3, 3; int(1..6)], [1, 2, 1, 3, 2, 3; int(1..6)], [1, 2, 3, 1, 3, 2; int(1..6)],
         [1, 3, 2, 3, 1, 2; int(1..6)], [1, 3, 3, 2, 2, 1; int(1..6)];
             int(1..5)]
