problems/csplib-prob055/EFPA-models/noch/O0/minion/model-eparams-solution000001.solution
language Essence 1.3

letting E be
        {[1, 1, 2, 2, 3, 3; int(1..6)], [1, 2, 1, 3, 2, 3; int(1..6)], [1, 2, 3, 1, 3, 2; int(1..6)],
         [1, 3, 2, 3, 1, 2; int(1..6)], [1, 3, 3, 2, 2, 1; int(1..6)]}
$ Here is a simple "visualisation" for the value above.
$ 1 1 2 2 3 3
$ 1 2 1 3 2 3
$ 1 2 3 1 3 2
$ 1 3 2 3 1 2
$ 1 3 3 2 2 1

